246 5
10 10 10 10 10 

0 0 0 0 0 0 4 2 14 26 38 
0 0 0 0 0 0 4 3 6 7 12 
8 2 0 0 0 0 1 4 
6 6 0 0 0 0 1 5 
4 5 0 0 0 0 1 8 
4 10 0 0 0 0 1 8 
1 10 0 0 0 0 2 8 204 
4 6 0 0 0 0 1 9 
3 10 0 0 0 0 1 10 
6 10 0 0 0 0 1 11 
10 6 0 0 0 0 1 13 
9 10 0 0 0 0 1 13 
0 0 0 0 0 0 1 50 
0 0 0 0 0 0 2 15 17 
6 0 4 0 0 0 2 18 16 
9 0 10 0 0 0 1 19 
2 0 5 0 0 0 1 18 
2 0 6 0 0 0 2 24 20 
5 0 9 0 0 0 2 24 20 
4 0 10 0 0 0 2 21 43 
5 0 6 0 0 0 1 22 
2 0 8 0 0 0 1 23 
3 0 7 0 0 0 1 25 
6 0 10 0 0 0 1 25 
0 0 0 0 0 0 1 50 
0 0 0 0 0 0 1 27 
7 0 0 0 0 3 1 28 
7 0 0 0 0 5 1 29 
3 0 0 0 0 9 2 32 30 
5 0 0 0 0 9 2 34 31 
10 0 0 0 0 8 3 35 33 206 
2 0 0 0 0 7 2 35 33 
5 0 0 0 0 10 1 36 
7 0 0 0 0 9 1 35 
5 0 0 0 0 5 1 37 
7 0 0 0 0 10 1 37 
0 0 0 0 0 0 1 50 
0 0 0 0 0 0 2 39 40 
1 0 0 0 0 6 2 42 41 
8 0 0 0 0 4 2 48 42 
3 0 0 0 0 5 3 48 43 134 
7 0 0 0 0 9 1 43 
5 0 0 0 0 10 1 44 
1 0 0 0 0 4 1 45 
4 0 0 0 0 9 1 46 
7 0 0 0 0 10 1 47 
5 0 0 0 0 8 1 49 
1 0 0 0 0 10 1 49 
0 0 0 0 0 0 1 50 
0 0 0 0 0 0 4 51 63 75 87 
0 0 0 0 0 0 3 52 60 61 
6 0 7 0 0 0 1 53 
10 0 4 0 0 0 1 54 
2 0 5 0 0 0 1 55 
9 0 9 0 0 0 1 56 
7 0 9 0 0 0 2 59 57 
6 0 10 0 0 0 1 58 
5 0 10 0 0 0 1 62 
4 0 5 0 0 0 1 62 
2 0 7 0 0 0 1 62 
4 0 9 0 0 0 1 62 
0 0 0 0 0 0 1 99 
0 0 0 0 0 0 2 64 68 
10 0 1 0 0 0 1 65 
9 0 8 0 0 0 1 66 
6 0 10 0 0 0 2 73 67 
9 0 7 0 0 0 2 72 69 
4 0 7 0 0 0 2 72 69 
7 0 5 0 0 0 1 70 
9 0 7 0 0 0 1 71 
9 0 10 0 0 0 1 74 
7 0 10 0 0 0 1 74 
5 0 10 0 0 0 1 74 
0 0 0 0 0 0 1 99 
0 0 0 0 0 0 1 76 
4 0 0 0 2 0 1 77 
3 0 0 0 6 0 1 78 
3 0 0 0 10 0 2 80 79 
4 0 0 0 7 0 2 82 81 
3 0 0 0 7 0 1 81 
3 0 0 0 9 0 2 84 83 
6 0 0 0 10 0 2 84 83 
4 0 0 0 10 0 1 85 
1 0 0 0 5 0 1 85 
5 0 0 0 9 0 1 86 
0 0 0 0 0 0 1 99 
0 0 0 0 0 0 3 88 91 95 
3 0 0 0 6 0 1 89 
10 0 0 0 7 0 1 90 
1 0 0 0 3 0 2 97 92 
6 0 0 0 9 0 2 97 94 
8 0 0 0 5 0 1 93 
4 0 0 0 7 0 1 94 
2 0 0 0 9 0 1 96 
10 0 0 0 10 0 1 96 
7 0 0 0 9 0 1 98 
4 0 0 0 10 0 1 98 
0 0 0 0 0 0 1 99 
0 0 0 0 0 0 4 100 112 124 136 
0 0 0 0 0 0 2 101 104 
7 0 0 0 0 4 1 102 
5 0 0 0 0 5 1 103 
5 0 0 0 0 5 3 110 109 105 
7 0 0 0 0 7 2 109 106 
5 0 0 0 0 10 1 106 
7 0 0 0 0 10 1 107 
7 0 0 0 0 5 1 108 
6 0 0 0 0 9 1 111 
7 0 0 0 0 10 1 111 
1 0 0 0 0 10 1 111 
0 0 0 0 0 0 1 148 
0 0 0 0 0 0 1 113 
5 0 5 0 0 0 2 119 114 
1 0 6 0 0 0 1 115 
4 0 8 0 0 0 2 121 116 
6 0 5 0 0 0 1 117 
1 0 10 0 0 0 1 118 
7 0 10 0 0 0 1 120 
10 0 6 0 0 0 1 122 
6 0 9 0 0 0 1 123 
1 0 6 0 0 0 1 123 
6 0 10 0 0 0 1 123 
0 0 0 0 0 0 1 148 
0 0 0 0 0 0 3 125 127 130 
2 0 0 0 2 0 2 134 126 
9 0 0 0 7 0 1 128 
8 0 0 0 4 0 2 134 131 
8 0 0 0 8 0 1 129 
3 0 0 0 10 0 1 131 
4 0 0 0 9 0 1 131 
10 0 0 0 10 0 1 132 
10 0 0 0 5 0 1 133 
3 0 0 0 10 0 1 135 
6 0 0 0 10 0 1 135 
0 0 0 0 0 0 1 148 
0 0 0 0 0 0 2 137 138 
8 0 5 0 0 0 3 142 141 139 
5 0 2 0 0 0 3 142 141 140 
7 0 10 0 0 0 1 140 
10 0 4 0 0 0 1 143 
9 0 10 0 0 0 1 143 
9 0 10 0 0 0 1 143 
6 0 10 0 0 0 1 144 
3 0 7 0 0 0 1 145 
2 0 9 0 0 0 1 146 
1 0 8 0 0 0 1 147 
0 0 0 0 0 0 1 148 
0 0 0 0 0 0 4 149 161 173 185 
0 0 0 0 0 0 1 150 
6 0 0 0 7 0 2 154 151 
3 0 0 0 5 0 1 152 
5 0 0 0 9 0 2 157 153 
10 0 0 0 8 0 1 155 
9 0 0 0 10 0 1 155 
6 0 0 0 6 0 1 156 
1 0 0 0 8 0 2 159 158 
6 0 0 0 6 0 1 158 
10 0 0 0 6 0 1 160 
8 0 0 0 10 0 1 160 
0 0 0 0 0 0 1 197 
0 0 0 0 0 0 2 162 164 
7 0 0 0 1 0 1 163 
3 0 0 0 10 0 2 167 165 
1 0 0 0 9 0 2 167 165 
1 0 0 0 8 0 1 166 
4 0 0 0 5 0 2 171 168 
6 0 0 0 9 0 1 168 
5 0 0 0 8 0 1 169 
10 0 0 0 8 0 1 170 
1 0 0 0 8 0 1 172 
9 0 0 0 9 0 1 172 
0 0 0 0 0 0 1 197 
0 0 0 0 0 0 2 174 175 
2 0 0 0 0 3 2 177 176 
4 0 0 0 0 3 2 177 176 
10 0 0 0 0 9 2 183 178 
2 0 0 0 0 9 1 178 
9 0 0 0 0 6 1 179 
2 0 0 0 0 10 1 180 
4 0 0 0 0 6 1 181 
5 0 0 0 0 10 1 182 
5 0 0 0 0 9 1 184 
3 0 0 0 0 10 1 184 
0 0 0 0 0 0 1 197 
0 0 0 0 0 0 1 186 
3 0 0 4 0 0 2 190 187 
9 0 0 9 0 0 2 195 188 
6 0 0 8 0 0 1 189 
9 0 0 8 0 0 1 191 
2 0 0 8 0 0 1 191 
1 0 0 7 0 0 1 192 
8 0 0 6 0 0 2 194 193 
7 0 0 10 0 0 1 196 
4 0 0 7 0 0 1 196 
6 0 0 8 0 0 1 196 
0 0 0 0 0 0 1 197 
0 0 0 0 0 0 4 198 210 222 234 
0 0 0 0 0 0 1 199 
10 2 0 0 0 0 2 202 200 
4 7 0 0 0 0 1 201 
5 9 0 0 0 0 2 208 203 
6 9 0 0 0 0 3 208 207 205 
7 8 0 0 0 0 2 207 204 
4 5 0 0 0 0 1 205 
3 5 0 0 0 0 1 206 
7 10 0 0 0 0 1 209 
4 10 0 0 0 0 1 209 
5 10 0 0 0 0 1 209 
0 0 0 0 0 0 1 246 
0 0 0 0 0 0 2 211 212 
9 3 0 0 0 0 3 216 215 213 
1 6 0 0 0 0 2 215 214 
2 6 0 0 0 0 1 214 
10 9 0 0 0 0 1 217 
5 9 0 0 0 0 1 217 
10 9 0 0 0 0 1 217 
6 8 0 0 0 0 1 218 
4 7 0 0 0 0 1 219 
5 10 0 0 0 0 1 220 
5 8 0 0 0 0 1 221 
0 0 0 0 0 0 1 246 
0 0 0 0 0 0 2 223 225 
1 0 1 0 0 0 1 224 
7 0 3 0 0 0 1 226 
10 0 8 0 0 0 1 226 
10 0 10 0 0 0 2 232 227 
2 0 8 0 0 0 2 231 228 
10 0 10 0 0 0 1 229 
8 0 8 0 0 0 1 230 
2 0 9 0 0 0 1 233 
9 0 10 0 0 0 1 233 
2 0 8 0 0 0 1 233 
0 0 0 0 0 0 1 246 
0 0 0 0 0 0 1 235 
1 0 0 0 0 1 2 241 236 
7 0 0 0 0 9 1 237 
2 0 0 0 0 6 1 238 
1 0 0 0 0 9 2 243 239 
2 0 0 0 0 10 1 240 
4 0 0 0 0 7 1 242 
4 0 0 0 0 8 1 244 
1 0 0 0 0 10 1 245 
8 0 0 0 0 6 1 245 
1 0 0 0 0 9 1 245 
0 0 0 0 0 0 1 246 
0 0 0 0 0 0 0 
